(set-logic QF_FP)
(set-info :smt-lib-version 2.0)
(set-info :category "crafted")
(set-info :source |Alberto Griggio <griggio@fbk.eu>. These benchmarks were used for the evaluation in the following paper: L. Haller, A. Griggio, M. Brain, D. Kroening: Deciding floating-point logic with systematic abstraction. FMCAD 2012. Real-numbered literals have been automatically translated by MathSAT|)
(set-info :status unknown)
;; MathSAT API call trace
;; generated on 05/20/15 17:24:52

(declare-fun b37 () (_ FloatingPoint 8 24))
(declare-fun b20 () (_ FloatingPoint 11 53))
(declare-fun b11 () (_ FloatingPoint 8 24))
(declare-fun b13 () (_ FloatingPoint 8 24))
(declare-fun b16 () (_ FloatingPoint 8 24))
(declare-fun b34 () (_ FloatingPoint 8 24))
(define-fun _t_3 () RoundingMode RNE)
(define-fun _t_9 () (_ FloatingPoint 8 24) b34)
(define-fun _t_10 () (_ FloatingPoint 8 24) b11)
(define-fun _t_11 () Bool (fp.lt _t_9 _t_10))
(define-fun _t_12 () (_ FloatingPoint 8 24) b13)
(define-fun _t_13 () (_ FloatingPoint 8 24) (fp.mul _t_3 _t_10 _t_12))
(define-fun _t_14 () (_ FloatingPoint 8 24) b16)
(define-fun _t_15 () (_ FloatingPoint 8 24) (fp.mul _t_3 _t_13 _t_14))
(define-fun _t_16 () (_ FloatingPoint 11 53) ((_ to_fp 11 53) _t_3 _t_15))
(define-fun _t_17 () (_ FloatingPoint 11 53) b20)
(define-fun _t_18 () Bool (fp.lt _t_17 _t_16))
(define-fun _t_19 () Bool (and _t_11 _t_18))
(define-fun _t_20 () (_ FloatingPoint 8 24) b37)
(define-fun _t_21 () Bool (fp.lt _t_10 _t_20))
(define-fun _t_22 () Bool (and _t_19 _t_21))
(define-fun _t_23 () Bool (fp.lt _t_9 _t_12))
(define-fun _t_24 () Bool (and _t_22 _t_23))
(define-fun _t_25 () Bool (fp.lt _t_12 _t_20))
(define-fun _t_26 () Bool (and _t_24 _t_25))
(define-fun _t_27 () Bool (fp.lt _t_9 _t_14))
(define-fun _t_28 () Bool (and _t_26 _t_27))
(define-fun _t_29 () Bool (fp.lt _t_14 _t_20))
(define-fun _t_30 () Bool (and _t_28 _t_29))
(assert _t_30)
(check-sat)
